Problem:    Resistenze
Rows:       17
Columns:    29 (24 integer, 24 binary)
Non-zeros:  79
Status:     INTEGER OPTIMAL
Objective:  z = -47.85714286 (MINimum)

   No.   Row name        Activity     Lower bound   Upper bound
------ ------------    ------------- ------------- -------------
     1 assegnamento[1]
                                   1             1             = 
     2 assegnamento[2]
                                   1             1             = 
     3 assegnamento[3]
                                   1             1             = 
     4 assegnamento[4]
                                   1             1             = 
     5 disp_res[1]                 1                           1 
     6 disp_res[2]                 1                           1 
     7 disp_res[3]                 0                           2 
     8 disp_res[4]                 0                           2 
     9 disp_res[5]                 1                           1 
    10 disp_res[6]                 1                           1 
    11 def_r[1]                    0            -0             = 
    12 def_r[2]                    0            -0             = 
    13 def_r[3]                    0            -0             = 
    14 def_r[4]                    0            -0             = 
    15 MinMax1               47.8571                     47.8571 
    16 MinMax2               47.8571       47.8571               
    17 z                    -47.8571                             

   No. Column name       Activity     Lower bound   Upper bound
------ ------------    ------------- ------------- -------------
     1 x[1,1]       *              0             0             1 
     2 x[2,1]       *              1             0             1 
     3 x[3,1]       *              0             0             1 
     4 x[4,1]       *              0             0             1 
     5 x[5,1]       *              0             0             1 
     6 x[6,1]       *              0             0             1 
     7 x[1,2]       *              1             0             1 
     8 x[2,2]       *              0             0             1 
     9 x[3,2]       *              0             0             1 
    10 x[4,2]       *              0             0             1 
    11 x[5,2]       *              0             0             1 
    12 x[6,2]       *              0             0             1 
    13 x[1,3]       *              0             0             1 
    14 x[2,3]       *              0             0             1 
    15 x[3,3]       *              0             0             1 
    16 x[4,3]       *              0             0             1 
    17 x[5,3]       *              0             0             1 
    18 x[6,3]       *              1             0             1 
    19 x[1,4]       *              0             0             1 
    20 x[2,4]       *              0             0             1 
    21 x[3,4]       *              0             0             1 
    22 x[4,4]       *              0             0             1 
    23 x[5,4]       *              1             0             1 
    24 x[6,4]       *              0             0             1 
    25 r[1]                       15                             
    26 r[2]                       12                             
    27 r[3]                       40                             
    28 r[4]                       30                             
    29 delta                -47.8571                             

Integer feasibility conditions:

KKT.PE: max.abs.err = 0.00e+000 on row 0
        max.rel.err = 0.00e+000 on row 0
        High quality

KKT.PB: max.abs.err = 0.00e+000 on row 0
        max.rel.err = 0.00e+000 on row 0
        High quality

End of output
